3 
4 
5  09 24 39 54 
6  09 24 39 54 
7  09 24 39 54 
8  09 24 39 54 
9  09 24 38 53 
10  08 23 38 53 
11  08 23 38 53 
12  08 23 38 52 
13  07 22 37 52 
14  07 22 37 54 
15  09 24 39 54 
16  09 24 39 54 
17  09 24 39 54 
18  09 24 39 54 
19  09 24 39 54 
20  09 24 39 54 
21  09 24 39 54 
22  11 26 41 59 
23 
0 
